(set-logic HORN)
(declare-fun state (Int (Array Int Int) (Array Int Int) (Array Int Int) (Array Int Int) Int Int (Array Int Int) (Array Int Int) Int Int Int Int Int Int Int Int Int Int Int Int Bool Bool Bool Bool Bool (Array Int Int)) Bool)
(assert (forall ((|A_13| Int) (|B_13| (Array Int Int)) (|C_13| (Array Int Int)) (|D_13| (Array Int Int)) (|E_13| (Array Int Int)) (|F_13| Int) (|G_13| Int) (|H_13| (Array Int Int)) (|I_13| (Array Int Int)) (|J_13| Int) (|K_13| Int) (|L_13| Int) (|M_13| Int) (|N_13| Int) (|O_13| Int) (|P_13| Int) (|Q_13| Int) (|R_13| Int) (|S_13| Int) (|T_13| Int) (|U_13| Int) (|W_7| Bool) (|.loc.5| Bool) (|.loc.6| Bool) (|.loc.7| Bool) (|.loc.8| Bool) (|W_0| (Array Int Int)) (|.x.295| Int) (|.x.293| (Array Int Int)) (|.x.291| Int) (|.x.289| (Array Int Int)) (|.x.285| Int) (|.x.287| (Array Int Int)) (|.x.286| (Array Int Int)) (|V_13| Bool) (|.x.296| Int) (|.x.297| Int) (|.x.298| Int) (|.x.300| Int) (|.loc.10| Bool) (|.loc.12| Bool) (|.loc.11| Bool) (|.x.301| Int) (|.x.299| Int) (|.x.305| Int) (|.loc.9| Bool) (|.x.303| Int) (|.x.302| Int) (|.x.288| (Array Int Int)) (|.x.304| Int) (|.x.292| (Array Int Int)) (|.x.290| Int) (|.x.294| Int) (|.xtv.1| (Array Int Int))) (=> (and (and (and (and .loc.6 (not .loc.5)) (not .loc.7)) (not .loc.8)) (and (and (and (and (and (= D_13 E_13) (not W_7)) (= J_13 K_13)) (= F_13 G_13)) (= H_13 I_13)) (= B_13 C_13))) (state |A_13| |B_13| |C_13| |D_13| |E_13| |F_13| |G_13| |H_13| |I_13| |J_13| |K_13| |L_13| |M_13| |N_13| |O_13| |P_13| |Q_13| |R_13| |S_13| |T_13| |U_13| |W_7| |.loc.5| |.loc.6| |.loc.7| |.loc.8| |W_0|))))
(assert (forall ((|A_13| Int) (|B_13| (Array Int Int)) (|C_13| (Array Int Int)) (|D_13| (Array Int Int)) (|E_13| (Array Int Int)) (|F_13| Int) (|G_13| Int) (|H_13| (Array Int Int)) (|I_13| (Array Int Int)) (|J_13| Int) (|K_13| Int) (|L_13| Int) (|M_13| Int) (|N_13| Int) (|O_13| Int) (|P_13| Int) (|Q_13| Int) (|R_13| Int) (|S_13| Int) (|T_13| Int) (|U_13| Int) (|W_7| Bool) (|.loc.5| Bool) (|.loc.6| Bool) (|.loc.7| Bool) (|.loc.8| Bool) (|W_0| (Array Int Int)) (|.x.295| Int) (|.x.293| (Array Int Int)) (|.x.291| Int) (|.x.289| (Array Int Int)) (|.x.285| Int) (|.x.287| (Array Int Int)) (|.x.286| (Array Int Int)) (|V_13| Bool) (|.x.296| Int) (|.x.297| Int) (|.x.298| Int) (|.x.300| Int) (|.loc.10| Bool) (|.loc.12| Bool) (|.loc.11| Bool) (|.x.301| Int) (|.x.299| Int) (|.x.305| Int) (|.loc.9| Bool) (|.x.303| Int) (|.x.302| Int) (|.x.288| (Array Int Int)) (|.x.304| Int) (|.x.292| (Array Int Int)) (|.x.290| Int) (|.x.294| Int) (|.xtv.1| (Array Int Int))) (=> (and (state |A_13| |B_13| |C_13| |D_13| |E_13| |F_13| |G_13| |H_13| |I_13| |J_13| |K_13| |L_13| |M_13| |N_13| |O_13| |P_13| |Q_13| |R_13| |S_13| |T_13| |U_13| |W_7| |.loc.5| |.loc.6| |.loc.7| |.loc.8| |W_0|) (let ((.def_37 (not .loc.5))) (let ((.def_39 (not .loc.7))) (let ((.def_41 (not .loc.8))) (let ((.def_73 (= B_13 .x.286))) (let ((.def_77 (= L_13 .x.296))) (let ((.def_80 (= M_13 .x.297))) (let ((.def_83 (= N_13 .x.298))) (let ((.def_86 (= P_13 .x.300))) (let ((.def_101 (not .loc.6))) (let ((.def_105 (= W_7 V_13))) (let ((.def_110 (not .loc.10))) (let ((.def_114 (not .loc.11))) (let ((.def_117 (= O_13 0))) (let ((.def_121 (and .def_83 (and .def_80 (and .def_73 .def_77))))) (let ((.def_122 (and .def_86 .def_121))) (let ((.def_130 (not .loc.12))) (let ((.def_135 (= Q_13 .x.301))) (let ((.def_137 (= O_13 .x.299))) (let ((.def_140 (= U_13 .x.305))) (let ((.def_149 (select D_13 N_13))) (let ((.def_158 (<= 100000 S_13))) (let ((.def_159 (not .def_158))) (let ((.def_172 (not .loc.9))) (let ((.def_177 (= S_13 .x.303))) (let ((.def_179 (= R_13 .x.302))) (let ((.def_185 (= (+ S_13 (* (- 1) .x.303)) (- 1)))) (let ((.def_188 (and .def_86 (and .def_121 .def_137)))) (let ((.def_189 (and .def_135 .def_188))) (let ((.def_202 (= .x.303 0))) (let ((.def_204 (and .def_179 .def_189))) (let ((.def_205 (and .def_140 .def_204))) (let ((.def_217 (and W_7 .def_73))) (let ((.def_248 (or W_7 .def_158))) (let ((.def_252 (= D_13 .x.288))) (let ((.def_264 (= .x.303 14999))) (let ((.def_283 (and .def_73 .def_252))) (let ((.def_288 (and .def_86 (and .def_137 (and .def_83 (and .def_80 (and .def_77 .def_283))))))) (let ((.def_303 (and .def_217 .def_252))) (let ((.def_339 (= T_13 .x.304))) (let ((.def_360 (= H_13 .x.292))) (let ((.def_362 (= F_13 .x.290))) (let ((.def_365 (= J_13 .x.294))) (and (and (= K_13 .x.295) (and (= I_13 .x.293) (and (= G_13 .x.291) (and (= E_13 .x.289) (and (= A_13 .x.285) (= C_13 .x.287)))))) (or (or (or (and (or (and (or (or (or (or (and (or (or (or (or (and (or (and (or (and (or (and .def_41 (and .loc.7 (and .loc.6 (and .loc.5 (and (and (and (and (and .def_73 V_13) .def_77) .def_80) .def_83) .def_86))))) (and (or W_7 (and (= .x.300 0) (= .x.286 (store B_13 N_13 0)))) (and (and (or V_13 (= .x.296 .x.300)) (and .def_37 (and (and .loc.8 .def_39) .def_101))) .def_105))) (and (and .def_110 .loc.12) .def_114)) (and (or W_7 .def_117) (and (and .def_105 (and .def_37 (and .loc.11 (and .loc.10 (and .def_41 (and .loc.7 (and .loc.6 .def_122))))))) .def_130))) (and (and (and .def_135 .def_137) .def_140) .loc.9)) (and (or W_7 (and (= .x.299 .x.305) (and (= .x.301 (select .def_149 (+ M_13 (* 4 S_13)))) (and (= .x.305 (ite (= .x.301 10) 1 0)) .def_159)))) (and (and .def_130 (and .def_105 (and .def_101 (and .loc.11 (and .loc.10 (and .def_41 (and .loc.7 (and .loc.5 .def_122)))))))) .def_172))) (and .def_177 .def_179)) (and (or W_7 .def_185) (and .def_130 (and .def_105 (and .def_101 (and .def_39 (and .def_110 (and .loc.11 (and .loc.9 (and .def_41 (and .loc.5 (and .def_140 .def_189)))))))))))) (and (or W_7 .def_202) (and .def_130 (and .def_105 (and .def_37 (and .def_101 (and .def_110 (and .loc.11 (and .loc.9 (and .def_41 (and .loc.7 .def_205))))))))))) (and .def_172 (and .def_105 (and .def_101 (and .def_114 (and .def_110 (and .loc.12 (and .def_41 (and .loc.7 (and .loc.5 (and .def_140 (and .def_177 (and .def_179 (and .def_135 (and .def_86 (and .def_137 (and .def_83 (and .def_80 (and .def_77 .def_217))))))))))))))))))) (and (and .def_172 (and .def_105 (and .def_101 (and .def_114 (and .def_110 (and .loc.12 (and .def_41 (and .loc.7 (and .loc.5 (and .def_140 (and .def_177 .def_204))))))))))) .def_248)) .def_252) (and (or V_13 (and (= .x.288 (store D_13 .x.298 (store (select D_13 .x.298) (+ (+ .x.297 (* 4 .x.303)) 4) 20))) (not .def_264))) (and .def_130 (and .def_105 (and .def_37 (and .def_101 (and .def_39 (and .def_114 (and .def_110 (and .loc.9 (and .def_41 (and .def_140 (and .def_177 (and .def_179 .def_188)))))))))))))) (and (or V_13 .def_264) (and .def_130 (and .def_105 (and .def_37 (and .def_101 (and .def_39 (and .def_114 (and .def_110 (and .loc.9 (and .def_41 (and .def_140 (and .def_177 (and .def_179 .def_288)))))))))))))) (and .def_172 (and .def_130 (and .def_105 (and .def_39 (and .def_110 (and .loc.11 (and .def_41 (and .loc.6 (and .loc.5 (and .def_140 (and .def_177 (and .def_179 (and .def_135 (and .def_86 (and .def_137 (and .def_83 (and .def_80 (and .def_77 .def_303))))))))))))))))))) (and .def_248 (and .def_172 (and .def_130 (and .def_105 (and .def_39 (and .def_110 (and .loc.11 (and .def_41 (and .loc.6 (and .loc.5 (and .def_140 (and .def_177 (and .def_179 (and .def_135 .def_288))))))))))))))) .def_339) (and (or W_7 (and .def_159 (= .x.288 (store D_13 N_13 (store .def_149 (+ M_13 (* 4 S_13)) 10))))) (and (or V_13 .def_185) (and .def_130 (and .def_105 (and .def_39 (and .def_114 (and .loc.10 (and .loc.9 (and .def_41 (and .loc.6 (and .loc.5 .def_205)))))))))))) (and (and .def_360 .def_362) .def_365)) (and (or W_7 (and (and (= .x.294 0) (= .x.290 0)) (= W_0 (store B_13 0 0)))) (and (or V_13 (and (and (and (and (and (and .def_202 (not (<= .x.285 .x.298))) (not (= .x.298 0))) (= .x.297 0)) (= (select W_0 .x.298) 0)) (= .x.292 (store H_13 .x.298 400000))) (= .x.286 (store W_0 .x.298 1)))) (and .def_130 (and .def_105 (and .def_37 (and .def_39 (and .def_114 (and .loc.10 (and .loc.9 (and .def_41 (and .loc.6 (and .def_140 (and .def_137 (and .def_77 .def_252))))))))))))))) (and (or W_7 (not .def_117)) (and .def_172 (and .def_130 (and .def_105 (and .def_37 (and .def_114 (and .def_110 (and .def_41 (and .loc.7 (and .loc.6 (and .def_140 (and .def_339 (and .def_177 (and .def_179 (and .def_135 (and .def_86 (and .def_137 (and .def_83 (and .def_80 (and .def_77 (and .def_365 (and .def_360 (and .def_283 .def_362)))))))))))))))))))))))) (and .def_172 (and .def_130 (and .def_105 (and .def_114 (and .def_110 (and .def_41 (and .loc.7 (and .loc.6 (and .loc.5 (and .def_140 (and .def_339 (and .def_177 (and .def_179 (and .def_135 (and .def_86 (and .def_137 (and .def_83 (and .def_80 (and .def_77 (and .def_365 (and .def_360 (and .def_303 .def_362))))))))))))))))))))))))))))))))))))))))))))))))))))))))))))))))))) (state |.x.285| |.x.286| |.x.287| |.x.288| |.x.289| |.x.290| |.x.291| |.x.292| |.x.293| |.x.294| |.x.295| |.x.296| |.x.297| |.x.298| |.x.299| |.x.300| |.x.301| |.x.302| |.x.303| |.x.304| |.x.305| |V_13| |.loc.9| |.loc.10| |.loc.11| |.loc.12| |.xtv.1|))))
(assert (forall ((|A_13| Int) (|B_13| (Array Int Int)) (|C_13| (Array Int Int)) (|D_13| (Array Int Int)) (|E_13| (Array Int Int)) (|F_13| Int) (|G_13| Int) (|H_13| (Array Int Int)) (|I_13| (Array Int Int)) (|J_13| Int) (|K_13| Int) (|L_13| Int) (|M_13| Int) (|N_13| Int) (|O_13| Int) (|P_13| Int) (|Q_13| Int) (|R_13| Int) (|S_13| Int) (|T_13| Int) (|U_13| Int) (|W_7| Bool) (|.loc.5| Bool) (|.loc.6| Bool) (|.loc.7| Bool) (|.loc.8| Bool) (|W_0| (Array Int Int)) (|.x.295| Int) (|.x.293| (Array Int Int)) (|.x.291| Int) (|.x.289| (Array Int Int)) (|.x.285| Int) (|.x.287| (Array Int Int)) (|.x.286| (Array Int Int)) (|V_13| Bool) (|.x.296| Int) (|.x.297| Int) (|.x.298| Int) (|.x.300| Int) (|.loc.10| Bool) (|.loc.12| Bool) (|.loc.11| Bool) (|.x.301| Int) (|.x.299| Int) (|.x.305| Int) (|.loc.9| Bool) (|.x.303| Int) (|.x.302| Int) (|.x.288| (Array Int Int)) (|.x.304| Int) (|.x.292| (Array Int Int)) (|.x.290| Int) (|.x.294| Int) (|.xtv.1| (Array Int Int))) (=> (state |A_13| |B_13| |C_13| |D_13| |E_13| |F_13| |G_13| |H_13| |I_13| |J_13| |K_13| |L_13| |M_13| |N_13| |O_13| |P_13| |Q_13| |R_13| |S_13| |T_13| |U_13| |W_7| |.loc.5| |.loc.6| |.loc.7| |.loc.8| |W_0|) (not (and W_7 (and .loc.8 (and (not .loc.7) (and .loc.5 (not .loc.6)))))))))
(check-sat)
